p cnf 30 80
a 16 12 0
e 1 2 3 4 5 6 7 8 9 10 11 13 14 15 17 18 19 20 21 22 23 24 25 26 27 28 29 30 0
-3 1 0
-3 2 0
-1 -2 3 0
-4 -3 0
-4 -3 0
3 4 0
7 -5 0
7 6 0
5 -6 -7 0
-8 4 0
-8 -7 0
-4 7 8 0
10 -9 0
10 -6 0
9 6 -10 0
-12 -11 0
-12 5 0
11 -5 12 0
-14 -3 0
-14 -13 0
3 13 14 0
15 14 0
15 -5 0
-14 5 -15 0
-12 15 -16 0
12 -15 -16 0
-12 -15 16 0
12 15 16 0
10 16 -17 0
-10 -16 -17 0
10 -16 17 0
-10 16 17 0
-18 -5 0
-18 2 0
5 -2 18 0
18 19 -20 0
-18 -19 -20 0
18 -19 20 0
-18 19 20 0
-21 17 0
-21 20 0
-17 -20 21 0
-8 -21 -22 0
8 21 -22 0
-8 21 22 0
8 -21 22 0
23 1 0
23 -6 0
-1 6 -23 0
-24 23 0
-24 -2 0
-23 2 24 0
24 3 -25 0
-24 -3 -25 0
24 -3 25 0
-24 3 25 0
-26 23 0
-26 -5 0
-23 5 26 0
-27 -25 0
-27 -26 0
25 26 27 0
-28 11 0
-28 3 0
-11 -3 28 0
-29 27 0
-29 -28 0
-27 28 29 0
22 29 -30 0
-22 -29 -30 0
22 -29 30 0
-22 29 30 0
9 7 -19 0
-20 -27 -17 -29 -12 0
-22 7 -14 20 23 -11 12 0
25 -21 -29 12 0
-18 -24 28 -11 -7 -8 10 0
-11 -5 -22 0
11 -10 13 -16 -3 -23 0
30 0
